3 
4 
5  02 19 34 49 
6  04 19 34 46 
7  01 16 31 46 
8  01 16 31 46 
9  01 16 31 46 
10  01 16 31 46 
11  01 16 31 46 
12  01 16 31 46 
13  01 16 31 46 
14  01 16 31 45 
15  00 15 30 45 
16  00 15 30 45 
17  00 15 30 45 
18  00 15 30 46 
19  01 16 31 48 
20  03 18 33 48 
21  03 18 33 48 
22  03 18 33 49 
23  09 26 
0 
